NAME : BB40.1493377.tour
COMMENT : Cost = 0_1493377
COMMENT : Found by LKH [Keld Helsgaun] Sun Apr 23 15:14:35 2017
TYPE : TOUR
DIMENSION : 83
TOUR_SECTION
1
12
52
22
62
17
16
27
57
56
67
3
43
29
69
40
80
19
59
23
13
53
63
14
54
30
70
31
71
18
58
6
46
83
25
65
37
77
5
45
15
55
33
73
21
61
11
51
32
34
72
74
9
49
38
78
8
48
28
68
82
39
79
7
47
35
75
41
81
26
66
24
4
44
64
20
60
36
76
10
2
50
42
-1
EOF
